1979-03-18
1979-03-19
1979-03-20
1979-03-21
1979-03-22
1979-03-23
1979-03-24
1979-03-25
1979-03-26
1979-03-27
1979-03-28
1979-03-31
1979-04-03
1979-05-27
1979-05-28
1979-05-29
1979-06-18
1979-06-19
1979-07-23
1979-07-24
1979-07-25
1979-07-26
1979-07-27
1979-09-05
1979-09-06
1979-09-07
1980-02-02
1980-02-03
1980-02-04
1980-02-05
1980-02-06
1980-02-07
1980-02-08
1980-02-09
1980-02-10
1980-02-11
1980-02-12
1980-02-13
1980-02-14
1980-02-15
1980-02-16
1980-02-17
1980-02-18
1980-02-19
1980-02-20
1980-02-21
1980-02-22
1980-02-23
1980-02-24
1980-02-25
1980-03-20
1980-03-21
1980-03-22
1980-03-25
1980-03-26
1980-03-27
1980-04-06
1980-04-07
1980-04-08
1980-04-09
1980-04-10
1980-04-11
1980-04-12
1980-04-13
1980-04-14
1980-04-15
1980-04-16
1980-04-17
1980-04-18
1980-04-19
1980-04-20
1980-04-21
1980-04-22
1980-04-23
1980-04-24
1980-04-25
1980-04-26
1980-04-27
1980-04-28
1980-04-29
1980-04-30
1980-05-01
1980-05-02
1980-05-03
1980-05-04
1980-05-05
1980-05-06
1980-05-07
1980-05-08
1980-05-09
1980-05-10
1980-05-11
1980-05-12
1980-05-13
1980-05-14
1980-05-15
1980-05-16
1980-05-17
1980-05-18
1980-05-19
1980-05-20
1980-05-21
1980-05-22
1980-05-23
1980-07-08
1980-07-09
1980-07-10
1980-07-11
1980-07-12
1980-07-13
1980-07-14
1980-07-15
1980-07-16
1980-07-17
1980-07-18
1980-07-19
1980-07-20
1980-07-21
1980-07-22
1980-07-23
1980-07-24
1980-07-25
1980-07-26
1980-07-27
1980-07-28
1980-07-29
1980-07-30
1980-07-31
1980-08-01
1980-08-02
1980-08-03
1980-08-04
1980-08-05
1980-08-06
1980-08-07
1980-08-08
1980-08-09
1981-03-13
1981-03-14
1981-03-15
1981-03-16
1981-03-17
1981-03-18
1981-03-19
1981-03-20
1981-03-21
1981-03-22
1981-03-23
1981-03-24
1981-03-25
1981-03-26
1981-03-27
1981-05-26
1981-05-27
1981-05-28
1981-05-29
1981-05-30
1981-05-31
1981-06-01
1981-06-02
1981-06-03
1981-06-04
1981-06-05
1981-06-06
1981-06-07
1981-06-08
1981-06-09
1981-06-10
1981-06-11
1981-06-12
1981-06-13
1981-06-14
1981-06-15
1981-06-16
1981-07-13
1981-07-14
1981-07-15
1981-07-16
1981-07-17
1981-07-18
1981-07-19
1981-07-20
1981-07-21
1981-07-22
1981-07-23
1981-07-24
1981-07-25
1981-07-26
1981-07-27
1981-07-28
1981-07-29
1981-07-30
1981-07-31
1981-08-01
1981-08-02
1982-04-25
1982-04-26
1982-04-27
1982-04-28
1982-04-29
1982-04-30
1982-05-01
1982-05-02
1982-05-03
1982-05-04
1982-05-05
1982-05-06
1982-06-12
1982-06-13
1982-06-14
1982-06-15
1982-06-16
1982-06-17
1982-06-18
1982-06-19
1982-06-20
1982-06-21
1982-06-22
1982-06-23
1982-06-24
1982-06-25
1982-06-26
1982-06-27
1982-06-28
1982-06-29
1982-06-30
1982-07-07
1982-07-08
1982-07-09
1982-07-10
1982-07-11
1982-07-12
1982-07-13
1983-01-31
1983-02-01
1983-02-02
1983-02-03
1983-04-24
1983-04-25
1983-04-26
1983-04-27
1983-04-28
1984-03-14
1984-03-15
1984-03-16
1984-03-17
1984-03-18
1984-03-19
1984-03-20
1984-03-21
1984-03-22
1984-05-11
1984-05-12
1984-05-16
1984-05-17
1984-05-18
1984-05-19
1984-05-20
1984-05-21
1984-05-22
1984-05-23
1984-05-24
1984-06-27
1984-07-06
1984-08-26
1984-08-27
1984-08-28
1984-08-29
1984-08-30
1984-08-31
1984-09-01
1984-09-02
1984-09-03
1984-09-04
1984-09-05
1984-09-06
1984-09-07
1984-09-08
1984-09-09
1984-09-10
1984-09-11
1984-09-12
1984-09-13
1984-09-14
1984-09-15
1985-06-10
1985-06-11
1985-06-12
1985-10-26
1985-10-27
1985-10-28
1985-10-29
1985-10-30
1985-10-31
1985-11-01
1985-11-02
1985-11-13
1985-11-14
1985-11-15
1985-11-16
1985-11-17
1985-11-18
1985-11-19
1985-11-21
1985-11-22
1986-03-17
1986-05-29
1986-05-30
1986-06-11
1986-06-12
1986-07-29
1986-07-30
1986-07-31
1986-08-01
1986-08-02
1986-08-03
1986-08-04
1986-08-05
1986-08-06
1986-08-07
1986-08-08
1986-08-09
1986-08-10
1986-08-11
1986-08-12
1986-10-01
1986-10-02
1986-10-03
1986-10-04
1986-10-05
1986-10-06
1986-10-07
1986-10-08
1986-10-09
1986-10-10
1986-10-15
1986-10-16
1986-10-17
1986-10-18
1986-10-19
1986-10-20
1987-05-08
1987-05-09
1987-06-24
1987-06-25
1987-06-26
1987-06-27
1987-06-28
1987-06-29
1987-06-30
1987-07-01
1987-07-02
1987-07-03
1987-07-04
1987-07-05
1987-07-16
1988-04-19
1988-04-20
1988-04-21
1988-04-22
1988-04-23
1988-04-24
1988-04-25
1988-04-26
1988-04-27
1988-05-02
1988-05-05
1988-05-11
1988-05-24
1988-05-25
1988-05-26
1988-05-31
1988-06-01
1988-06-07
1988-06-08
1988-06-09
1988-06-10
1988-08-15
1988-08-16
1988-08-17
1988-08-18
1988-08-19
1988-08-20
1988-08-21
1988-08-22
1988-08-23
1988-08-24
1988-08-25
1988-08-26
1989-07-22
1989-07-23
1989-07-24
1989-07-25
1989-07-26
1989-07-27
1989-07-28
1989-07-29
1989-07-30
1989-07-31
1989-08-01
1989-08-02
1989-08-03
1989-08-04
1989-08-05
1989-08-06
1989-08-07
1989-08-08
1989-08-09
1989-08-10
1989-08-11
1989-08-12
1989-08-13
1989-08-14
1989-08-15
1989-08-16
1989-08-17
1989-08-18
1989-08-19
1989-08-20
1989-08-21
1989-08-22
1989-08-23
1989-08-24
1989-09-23
1989-09-24
1989-09-25
1989-09-26
1990-04-19
1990-04-20
1990-04-21
1990-04-22
1990-06-23
1991-05-23
1991-05-24
1991-05-25
1991-05-26
1991-05-27
1991-05-28
1991-05-29
1991-05-30
1991-05-31
1991-06-01
1991-06-02
1991-06-03
1991-06-04
1991-06-05
1991-06-06
1991-06-07
1991-06-08
1991-06-09
1991-06-10
1991-06-12
1991-06-13
1991-06-14
1991-06-15
1991-07-01
1991-07-02
1991-07-03
1991-07-04
1991-07-05
1991-08-23
1991-08-24
1991-08-25
1991-08-26
1991-08-27
1991-08-28
1992-02-12
1992-02-13
1992-02-14
1992-02-15
1992-02-16
1992-02-17
1992-02-18
1992-02-19
1992-02-21
1992-03-10
1992-04-14
1992-04-15
1992-04-21
1992-04-23
1992-04-24
1992-04-25
1992-04-26
1992-04-27
1992-04-28
1992-04-30
1992-05-08
1992-05-09
1992-06-27
1992-06-28
1992-06-29
1992-06-30
1992-07-01
1992-07-02
1992-07-03
1992-07-04
1992-07-05
1992-07-06
1992-07-07
1992-07-08
1992-11-21
1992-11-22
1992-11-23
1992-11-24
1992-11-25
1992-11-26
1992-11-27
1992-11-28
1992-11-29
1993-02-20
1993-02-21
1993-02-22
1993-02-23
1993-02-24
1993-02-25
1993-02-26
1993-02-27
1993-06-22
1993-06-23
1993-06-24
1993-07-18
1993-07-19
1993-07-20
1993-07-21
1993-07-22
1993-07-23
1993-07-24
1993-07-25
1993-07-27
1993-07-28
1993-07-29
1993-07-30
1993-07-31
1993-08-01
1993-08-02
1993-08-03
1993-08-04
1993-08-05
1993-08-06
1993-08-07
1993-08-08
1993-08-09
1994-06-05
1995-04-15
1995-04-17
1995-04-19
1995-04-20
1995-04-21
1995-04-22
1995-04-23
1995-04-24
1995-04-25
1995-04-26
1995-04-27
1995-04-28
1995-04-29
1995-04-30
1995-05-01
1995-05-02
1995-05-03
1995-05-04
1995-05-05
1995-05-06
1995-05-07
1995-07-01
1995-07-02
1995-07-03
1995-07-04
1995-07-05
1995-07-06
1995-07-07
1995-07-08
1995-07-09
1995-07-10
1995-07-11
1995-07-12
1995-07-13
1995-07-14
1995-07-15
1995-07-16
1995-07-17
1995-07-18
1995-07-19
1995-07-20
1995-07-21
1995-07-22
1995-07-23
1995-07-24
1995-07-30
1995-07-31
1995-08-01
1995-08-02
1995-08-03
1995-08-07
1995-12-13
1995-12-14
1995-12-15
1995-12-16
1995-12-17
1996-04-21
1996-04-22
1996-04-23
1996-06-28
1996-06-29
1996-06-30
1996-07-12
1996-07-13
1996-09-15
1996-09-16
1996-09-20
1996-09-21
1996-09-22
1996-09-23
1997-01-27
1997-01-28
1997-01-29
1997-01-30
1997-01-31
1997-02-01
1997-02-02
1997-02-03
1997-02-04
1997-02-05
1997-02-06
1997-02-07
1997-02-08
1997-02-09
1997-05-26
1997-05-27
1997-05-28
1997-05-29
1997-05-30
1997-05-31
1997-06-01
1997-06-02
1997-06-03
1997-06-04
1997-06-05
1997-06-06
1997-06-07
1997-06-08
1997-06-09
1997-06-11
1997-06-12
1997-06-13
1997-06-14
1997-06-15
1997-06-16
1997-06-17
1997-06-18
1997-06-19
1997-06-20
1997-06-21
1997-06-22
1997-06-23
1997-06-24
1997-09-11
1997-09-12
1997-09-13
1997-09-14
1997-09-15
1997-09-16
1997-09-17
1997-09-18
1997-09-19
1997-09-20
1997-09-21
1997-09-22
1997-09-23
1997-09-24
1997-09-25
1997-09-26
1997-09-27
1997-09-28
1997-09-29
1997-09-30
1998-02-01
1998-02-02
1998-02-03
1998-02-04
1998-02-05
1998-02-06
1998-02-07
1998-02-08
1998-02-09
1998-02-10
1998-02-11
1998-02-12
1998-02-13
1998-05-03
1998-05-04
1998-05-05
1998-05-06
1998-05-07
1998-05-08
1998-05-09
1998-05-10
1998-05-11
1998-05-12
1998-05-13
1998-05-14
1998-05-15
1998-05-16
1998-05-17
1998-05-18
1998-05-19
1998-05-20
1998-05-21
1998-05-22
1998-05-23
1998-05-24
1998-05-25
1998-05-26
1998-05-27
1998-05-28
1998-05-29
1998-05-30
1998-05-31
1998-06-01
1998-06-02
1998-06-03
1998-06-04
1998-06-05
1998-06-06
1998-06-07
1998-06-08
1998-06-09
1998-06-10
1998-12-31
1999-01-02
1999-08-27
1999-08-28
1999-08-29
1999-08-30
1999-08-31
1999-09-01
1999-09-02
1999-09-03
1999-09-04
1999-09-05
1999-09-06
1999-09-07
1999-09-08
1999-11-13
2000-06-26
2000-06-27
2000-06-28
2000-06-29
2000-06-30
2000-07-01
2000-07-02
2000-07-03
2000-07-04
2000-07-05
2000-07-06
2000-07-07
2000-07-08
2000-07-09
2000-07-10
2000-07-11
2000-07-12
2000-07-13
2000-07-14
2000-07-15
2000-07-16
2000-07-17
2000-07-18
2000-07-19
2000-07-20
2000-07-21
2000-07-22
2000-07-23
2000-07-24
2000-07-25
2000-07-26
2000-08-12
2000-08-13
2000-08-14
2000-08-15
2000-08-26
2000-08-27
2000-08-28
2000-10-31
2000-11-01
2000-11-02
2000-11-03
2000-11-04
2000-11-05
2000-11-06
2000-11-07
2000-11-08
2000-11-09
2000-11-10
2001-04-23
2001-04-24
2001-04-25
2001-04-26
2001-04-28
2001-04-29
2001-04-30
2001-05-01
2001-05-02
2001-05-03
2001-05-04
2001-05-05
2001-05-06
2001-05-07
2001-05-08
2001-05-09
2001-05-10
2001-06-24
2001-06-25
2001-06-26
2001-06-27
2001-06-28
2001-06-29
2001-06-30
2001-07-01
2001-07-02
2001-07-03
2001-07-04
2001-07-05
2001-07-06
2001-07-07
2001-07-08
2001-07-09
2001-07-11
2001-07-12
2001-07-13
2001-07-14
2001-07-15
2001-07-16
2001-07-17
2001-07-18
2001-07-19
2001-07-20
2001-07-21
2001-07-22
2001-07-23
2001-07-24
2001-07-25
2001-07-26
2001-07-27
2001-07-28
2001-08-14
2001-08-15
2001-08-16
2001-08-17
2001-08-18
2001-08-19
2001-08-20
2001-08-21
2001-08-22
2001-08-23
2001-08-24
2001-08-25
2001-08-26
2001-08-27
2001-08-28
2001-08-29
2001-09-23
2001-12-11
2002-04-24
2002-04-29
2002-04-30
2002-05-01
2002-05-02
2002-05-03
2002-05-04
2002-05-05
2002-05-06
2002-05-07
2002-05-08
2002-05-09
2002-05-10
2002-05-11
2002-05-12
2002-05-13
2002-05-14
2002-05-15
2002-05-16
2002-05-17
2002-05-18
2002-05-19
2002-05-20
2002-05-21
2002-05-22
2002-05-23
2002-05-24
2002-05-25
2002-05-26
2002-06-01
2002-06-02
2002-06-03
2002-06-04
2002-06-05
2002-06-06
2002-06-07
2002-06-08
2002-07-22
2002-07-23
2002-07-24
2002-07-25
2002-07-26
2002-07-27
2002-07-28
2002-07-29
2002-07-30
2002-07-31
2003-03-30
2003-03-31
2003-04-01
2003-04-02
2003-04-03
2003-04-04
2003-04-05
2003-04-06
2003-04-07
2003-04-08
2003-04-09
2003-04-10
2003-04-11
2003-04-12
2003-04-13
2003-04-14
2003-04-15
2003-04-16
2003-04-17
2003-04-18
2003-04-19
2003-08-19
2003-08-20
2004-11-27
2004-11-28
2004-11-29
2004-11-30
2004-12-01
2004-12-02
2004-12-03
2005-05-20
2005-05-21
2005-05-22
2005-05-23
2005-05-24
2005-05-25
2005-05-26
2005-06-21
2005-06-22
2005-06-23
2005-06-24
2005-06-28
2005-07-01
2005-07-02
2005-07-03
2005-07-04
2005-07-05
2005-07-06
2005-07-07
2005-07-08
2005-08-29
2005-08-30
2005-08-31
2005-09-01
2005-09-02
2005-09-03
2005-09-05
2005-09-06
2005-09-07
2005-09-08
2005-09-09
2005-09-10
2005-09-11
2005-09-12
2005-09-13
2005-09-14
2005-09-15
2005-09-16
2005-09-17
2005-09-18
2005-09-19
2005-09-20
2005-09-21
2005-09-22
2005-10-26
2005-10-27
2005-10-28
2005-10-29
2005-10-30
2005-10-31
2005-11-01
2005-11-02
2005-11-03
2005-11-04
2005-12-09
2005-12-12
2005-12-13
2005-12-14
2005-12-15
2005-12-16
2005-12-17
2006-04-23
2006-04-24
2006-07-22
2006-07-23
2006-07-24
2006-07-25
2006-07-26
2006-07-27
2006-07-28
2006-07-29
2006-07-30
2006-07-31
2006-08-01
2006-08-02
2006-08-03
2006-08-04
2006-08-05
2006-08-06
2006-08-07
2006-08-08
2006-08-09
2006-08-10
2006-08-11
2006-08-12
2006-08-13
2006-08-14
2006-08-15
2006-08-16
2006-08-17
2007-02-21
2007-06-11
2007-06-12
2007-06-13
2007-06-14
2007-06-15
2007-06-16
2007-06-17
2007-06-20
2007-06-21
2007-06-22
2007-06-23
2007-06-24
2007-06-25
2007-06-26
2007-06-27
2007-06-28
2007-06-29
2007-06-30
2007-07-01
2007-07-02
2007-07-03
2007-07-04
2007-07-05
2007-07-06
2007-07-07
2007-07-08
2007-07-09
2007-07-10
2007-07-11
2007-07-12
2007-07-13
2007-07-14
2007-07-15
2007-07-16
2007-07-17
2007-07-18
2007-07-19
2007-07-20
2007-07-21
2007-07-22
2008-05-27
2008-05-28
2008-05-29
2008-06-08
2008-06-09
2008-06-10
2008-06-11
2008-07-20
2008-07-21
2008-07-22
2008-07-23
2008-09-02
2008-09-03
2008-09-04
2008-09-05
2008-09-06
2008-09-07
2008-09-08
2008-09-09
2008-09-10
2008-09-11
2008-09-12
2008-09-13
2008-09-14
2008-09-15
2008-09-16
2008-09-17
2008-09-18
2008-09-19
2008-09-20
2008-09-21
2008-09-22
2008-09-23
2008-09-24
2008-09-25
2009-04-21
2009-05-10
2009-05-11
2009-05-12
2009-05-13
2009-05-14
2009-05-15
2009-05-16
2009-05-17
2009-05-18
2009-05-19
2009-05-20
2009-06-29
2009-06-30
2009-07-01
2009-07-02
2009-07-03
2009-07-04
2009-07-05
2009-07-06
2009-07-07
2009-07-08
2009-07-09
2009-07-10
2009-07-11
2009-07-12
2009-08-11
2009-08-12
2009-08-13
2009-08-14
2009-08-15
2009-08-16
2009-08-17
2009-08-18
2009-08-19
2009-08-20
2009-08-21
2009-08-22
2009-08-24
2009-08-25
2009-08-26
2009-08-27
2009-08-28
2009-08-29
2009-08-30
2009-08-31
2009-09-01
2009-09-02
2009-09-03
2009-10-31
2009-11-01
2009-11-02
2009-11-03
2010-01-23
2010-01-24
2010-01-25
2010-01-26
2010-01-27
2010-01-28
2010-01-29
2010-01-30
2010-01-31
2010-08-28
2010-08-29
2010-08-30
2010-08-31
2010-09-01
2010-09-02
2010-09-03
2010-10-18
2010-10-19
2010-10-20
2010-10-21
2010-10-22
2010-10-23
2010-10-27
2010-10-28
2010-11-02
2010-11-03
2010-11-04
2010-11-05
2010-11-06
2010-11-07
2010-11-08
2010-11-09
2010-11-10
2010-11-11
2010-11-12
2010-11-13
2010-12-10
2010-12-13
2011-02-21
2011-02-22
2011-02-23
2011-02-24
2011-02-25
2011-02-26
2011-02-27
2011-02-28
2011-03-01
2011-03-02
2011-03-03
2011-03-04
2011-03-05
2011-07-14
2011-07-15
2011-07-16
2011-07-24
2011-07-25
2011-07-26
2011-07-27
2011-07-28
2011-07-29
2011-07-30
2011-07-31
2011-08-01
2011-08-02
2011-08-03
2011-08-04
2011-08-05
2011-08-06
2011-08-07
2011-08-08
2011-08-09
2011-08-10
2011-08-11
2011-08-12
2011-08-13
2011-08-14
2011-08-15
2011-08-16
2011-08-17
2011-08-18
2011-08-19
2011-08-20
2011-08-21
2011-08-22
2011-08-23
2011-08-24
2012-04-11
2012-04-12
2012-04-13
2012-04-26
2012-04-27
2012-04-28
2012-04-29
2012-04-30
2012-05-01
2012-08-15
2012-08-16
2012-08-17
2012-08-18
2012-08-19
2012-08-20
2012-08-21
2012-08-22
2012-08-23
2013-03-23
2013-03-24
2013-03-25
2013-03-26
2014-03-20
2014-03-21
2014-03-22
2014-04-13
2014-04-14
2014-04-15
2014-04-16
2014-04-17
2014-04-18
2014-04-19
2014-04-20
2014-04-21
2014-04-22
2014-04-23
2014-04-24
2014-04-25
2014-04-26
2014-04-27
2014-04-28
2014-04-29
2014-04-30
2014-05-01
2014-05-02
2014-05-03
2014-05-04
